% Logging successfully configured
%%%mzn-stat: initTime=0.005142502
%%%mzn-stat: objective=887
%%%mzn-stat: nodes=258
%%%mzn-stat: restarts=0
%%%mzn-stat: peakDepth=257
%%%mzn-stat: solveTime=0.001045073
%%%mzn-stat: variables=521
%%%mzn-stat: propagators=366
%%%mzn-stat: failures=1
%%%mzn-stat: propagations=1221
%%%mzn-stat: nogoods=1
%%%mzn-stat: numAtomicConstraintsPropagated=0
%%%mzn-stat: allDifferentNumber1PropagationsTotal=34
%%%mzn-stat: allDifferentNumber1PropagationsThatFoundConflict=0
%%%mzn-stat: allDifferentNumber1PropagationsThatPruned=17
%%%mzn-stat: allDifferentNumber1TotalValuesPruned=120
%%%mzn-stat: allDifferentNumber1TotalHallSetSizeConflict=0
%%%mzn-stat: allDifferentNumber1NumberOfConflicts=0
%%%mzn-stat: allDifferentNumber1MaxHallSetSizeConflict=0
%%%mzn-stat: allDifferentNumber1TotalPruningHallSetSize=145
%%%mzn-stat: allDifferentNumber1NumberOfPruningExplanations=120
%%%mzn-stat: allDifferentNumber1MaxPruningHallSetSize=5
%%%mzn-stat: allDifferentNumber1TotalFixedEdgesAtConflict=0
%%%mzn-stat: allDifferentNumber1TotalVarsInvolvedInPruning=113
%%%mzn-stat: allDifferentNumber1MaxValuesPrunedFromSingleVar=4
%%%mzn-stat: allDifferentNumber1TotalSccSizeAtPruning=31
%%%mzn-stat: allDifferentNumber1NumberOfSccPruningCalls=17
%%%mzn-stat: circuitNumber2PropagationsThatFoundConflict=1
%%%mzn-stat: circuitNumber2TotalFixedEdgesAtConflict=17
%%%mzn-stat: circuitNumber2NumberOfConflicts=1
%%%mzn-stat: circuitNumber2PropagationsThatPruned=1
%%%mzn-stat: circuitNumber2PropagationsTotal=18
%%%mzn-stat: AverageConflictSize=17
%%%mzn-stat: NumUnitNogoodsLearned=0
%%%mzn-stat: AverageLearnedNogoodLength=15
%%%mzn-stat: AverageBacktrackAmount=0
%%%mzn-stat: AverageLbd=15
%%%mzn-stat: 2AutonomousSearchNumBackupCalled=241
%%%mzn-stat: 2AutonomousSearchNumPredicatesRemoved=0
%%%mzn-stat: 2AutonomousSearchNumCalls=242
%%%mzn-stat: 2AutonomousSearchNumPredicatesAdded=31
%%%mzn-stat: 2AutonomousSearchAverageSizeOfHeap=0.128099173553719
%%%mzn-stat: 2AutonomousSearchNumAssignedPredicatesEncountered=31
%%%mzn-stat-end
maxleg = 887;
succ = array1d(1..20,[2, 3, 4, 5, 6, 7, 9, 1, 10, 11, 13, 8, 14, 16, 17, 19, 18, 20, 15, 12]);
% time elapsed: 2.75 s
----------
%%%mzn-stat: initTime=0.005142502
%%%mzn-stat: objective=737
%%%mzn-stat: nodes=517
%%%mzn-stat: restarts=0
%%%mzn-stat: peakDepth=260
%%%mzn-stat: solveTime=0.001751152
%%%mzn-stat: variables=521
%%%mzn-stat: propagators=366
%%%mzn-stat: failures=1
%%%mzn-stat: propagations=1815
%%%mzn-stat: nogoods=1
%%%mzn-stat: numAtomicConstraintsPropagated=0
%%%mzn-stat: allDifferentNumber1PropagationsTotal=68
%%%mzn-stat: allDifferentNumber1PropagationsThatFoundConflict=0
%%%mzn-stat: allDifferentNumber1PropagationsThatPruned=34
%%%mzn-stat: allDifferentNumber1TotalValuesPruned=231
%%%mzn-stat: allDifferentNumber1TotalHallSetSizeConflict=0
%%%mzn-stat: allDifferentNumber1NumberOfConflicts=0
%%%mzn-stat: allDifferentNumber1MaxHallSetSizeConflict=0
%%%mzn-stat: allDifferentNumber1TotalPruningHallSetSize=269
%%%mzn-stat: allDifferentNumber1NumberOfPruningExplanations=231
%%%mzn-stat: allDifferentNumber1MaxPruningHallSetSize=5
%%%mzn-stat: allDifferentNumber1TotalFixedEdgesAtConflict=0
%%%mzn-stat: allDifferentNumber1TotalVarsInvolvedInPruning=220
%%%mzn-stat: allDifferentNumber1MaxValuesPrunedFromSingleVar=4
%%%mzn-stat: allDifferentNumber1TotalSccSizeAtPruning=57
%%%mzn-stat: allDifferentNumber1NumberOfSccPruningCalls=34
%%%mzn-stat: circuitNumber2PropagationsThatFoundConflict=1
%%%mzn-stat: circuitNumber2TotalFixedEdgesAtConflict=17
%%%mzn-stat: circuitNumber2NumberOfConflicts=1
%%%mzn-stat: circuitNumber2PropagationsThatPruned=1
%%%mzn-stat: circuitNumber2PropagationsTotal=35
%%%mzn-stat: AverageConflictSize=17
%%%mzn-stat: NumUnitNogoodsLearned=0
%%%mzn-stat: AverageLearnedNogoodLength=15
%%%mzn-stat: AverageBacktrackAmount=0
%%%mzn-stat: AverageLbd=15
%%%mzn-stat: 2AutonomousSearchNumBackupCalled=483
%%%mzn-stat: 2AutonomousSearchNumPredicatesRemoved=0
%%%mzn-stat: 2AutonomousSearchNumCalls=485
%%%mzn-stat: 2AutonomousSearchNumPredicatesAdded=31
%%%mzn-stat: 2AutonomousSearchAverageSizeOfHeap=0.12783505154639174
%%%mzn-stat: 2AutonomousSearchNumAssignedPredicatesEncountered=62
%%%mzn-stat-end
maxleg = 737;
succ = array1d(1..20,[2, 3, 4, 5, 8, 7, 1, 12, 6, 9, 10, 13, 14, 16, 17, 19, 18, 20, 15, 11]);
% time elapsed: 2.75 s
----------
%%%mzn-stat: initTime=0.005142502
%%%mzn-stat: objective=728
%%%mzn-stat: nodes=775
%%%mzn-stat: restarts=0
%%%mzn-stat: peakDepth=260
%%%mzn-stat: solveTime=0.002426922
%%%mzn-stat: variables=521
%%%mzn-stat: propagators=366
%%%mzn-stat: failures=1
%%%mzn-stat: propagations=2419
%%%mzn-stat: nogoods=1
%%%mzn-stat: numAtomicConstraintsPropagated=0
%%%mzn-stat: allDifferentNumber1PropagationsTotal=102
%%%mzn-stat: allDifferentNumber1PropagationsThatFoundConflict=0
%%%mzn-stat: allDifferentNumber1PropagationsThatPruned=51
%%%mzn-stat: allDifferentNumber1TotalValuesPruned=340
%%%mzn-stat: allDifferentNumber1TotalHallSetSizeConflict=0
%%%mzn-stat: allDifferentNumber1NumberOfConflicts=0
%%%mzn-stat: allDifferentNumber1MaxHallSetSizeConflict=0
%%%mzn-stat: allDifferentNumber1TotalPruningHallSetSize=391
%%%mzn-stat: allDifferentNumber1NumberOfPruningExplanations=340
%%%mzn-stat: allDifferentNumber1MaxPruningHallSetSize=5
%%%mzn-stat: allDifferentNumber1TotalFixedEdgesAtConflict=0
%%%mzn-stat: allDifferentNumber1TotalVarsInvolvedInPruning=325
%%%mzn-stat: allDifferentNumber1MaxValuesPrunedFromSingleVar=4
%%%mzn-stat: allDifferentNumber1TotalSccSizeAtPruning=83
%%%mzn-stat: allDifferentNumber1NumberOfSccPruningCalls=51
%%%mzn-stat: circuitNumber2PropagationsThatFoundConflict=1
%%%mzn-stat: circuitNumber2TotalFixedEdgesAtConflict=17
%%%mzn-stat: circuitNumber2NumberOfConflicts=1
%%%mzn-stat: circuitNumber2PropagationsThatPruned=1
%%%mzn-stat: circuitNumber2PropagationsTotal=52
%%%mzn-stat: AverageConflictSize=17
%%%mzn-stat: NumUnitNogoodsLearned=0
%%%mzn-stat: AverageLearnedNogoodLength=15
%%%mzn-stat: AverageBacktrackAmount=0
%%%mzn-stat: AverageLbd=15
%%%mzn-stat: 2AutonomousSearchNumBackupCalled=724
%%%mzn-stat: 2AutonomousSearchNumPredicatesRemoved=0
%%%mzn-stat: 2AutonomousSearchNumCalls=727
%%%mzn-stat: 2AutonomousSearchNumPredicatesAdded=31
%%%mzn-stat: 2AutonomousSearchAverageSizeOfHeap=0.1279229711141678
%%%mzn-stat: 2AutonomousSearchNumAssignedPredicatesEncountered=93
%%%mzn-stat-end
maxleg = 728;
succ = array1d(1..20,[2, 3, 4, 8, 12, 7, 1, 5, 6, 9, 10, 13, 14, 16, 17, 19, 18, 20, 15, 11]);
% time elapsed: 2.75 s
----------
%%%mzn-stat: initTime=0.005142502
%%%mzn-stat: objective=673
%%%mzn-stat: nodes=1013
%%%mzn-stat: restarts=0
%%%mzn-stat: peakDepth=260
%%%mzn-stat: solveTime=0.003152408
%%%mzn-stat: variables=521
%%%mzn-stat: propagators=366
%%%mzn-stat: failures=1
%%%mzn-stat: propagations=3036
%%%mzn-stat: nogoods=1
%%%mzn-stat: numAtomicConstraintsPropagated=0
%%%mzn-stat: allDifferentNumber1PropagationsTotal=137
%%%mzn-stat: allDifferentNumber1PropagationsThatFoundConflict=0
%%%mzn-stat: allDifferentNumber1PropagationsThatPruned=68
%%%mzn-stat: allDifferentNumber1TotalValuesPruned=449
%%%mzn-stat: allDifferentNumber1TotalHallSetSizeConflict=0
%%%mzn-stat: allDifferentNumber1NumberOfConflicts=0
%%%mzn-stat: allDifferentNumber1MaxHallSetSizeConflict=0
%%%mzn-stat: allDifferentNumber1TotalPruningHallSetSize=509
%%%mzn-stat: allDifferentNumber1NumberOfPruningExplanations=449
%%%mzn-stat: allDifferentNumber1MaxPruningHallSetSize=5
%%%mzn-stat: allDifferentNumber1TotalFixedEdgesAtConflict=0
%%%mzn-stat: allDifferentNumber1TotalVarsInvolvedInPruning=432
%%%mzn-stat: allDifferentNumber1MaxValuesPrunedFromSingleVar=4
%%%mzn-stat: allDifferentNumber1TotalSccSizeAtPruning=109
%%%mzn-stat: allDifferentNumber1NumberOfSccPruningCalls=68
%%%mzn-stat: circuitNumber2PropagationsThatFoundConflict=1
%%%mzn-stat: circuitNumber2TotalFixedEdgesAtConflict=17
%%%mzn-stat: circuitNumber2NumberOfConflicts=1
%%%mzn-stat: circuitNumber2PropagationsThatPruned=1
%%%mzn-stat: circuitNumber2PropagationsTotal=69
%%%mzn-stat: AverageConflictSize=17
%%%mzn-stat: NumUnitNogoodsLearned=0
%%%mzn-stat: AverageLearnedNogoodLength=15
%%%mzn-stat: AverageBacktrackAmount=0
%%%mzn-stat: AverageLbd=15
%%%mzn-stat: 2AutonomousSearchNumBackupCalled=945
%%%mzn-stat: 2AutonomousSearchNumPredicatesRemoved=0
%%%mzn-stat: 2AutonomousSearchNumCalls=949
%%%mzn-stat: 2AutonomousSearchNumPredicatesAdded=31
%%%mzn-stat: 2AutonomousSearchAverageSizeOfHeap=0.13066385669125394
%%%mzn-stat: 2AutonomousSearchNumAssignedPredicatesEncountered=124
%%%mzn-stat-end
maxleg = 673;
succ = array1d(1..20,[2, 3, 4, 8, 12, 7, 1, 13, 6, 9, 10, 14, 15, 16, 19, 17, 18, 20, 5, 11]);
% time elapsed: 2.75 s
----------
%%%mzn-stat: initTime=0.005142502
%%%mzn-stat: objective=641
%%%mzn-stat: nodes=1245
%%%mzn-stat: restarts=0
%%%mzn-stat: peakDepth=260
%%%mzn-stat: solveTime=0.003980974
%%%mzn-stat: variables=521
%%%mzn-stat: propagators=366
%%%mzn-stat: failures=2
%%%mzn-stat: propagations=3671
%%%mzn-stat: nogoods=2
%%%mzn-stat: numAtomicConstraintsPropagated=0
%%%mzn-stat: allDifferentNumber1PropagationsTotal=172
%%%mzn-stat: allDifferentNumber1PropagationsThatFoundConflict=0
%%%mzn-stat: allDifferentNumber1PropagationsThatPruned=86
%%%mzn-stat: allDifferentNumber1TotalValuesPruned=560
%%%mzn-stat: allDifferentNumber1TotalHallSetSizeConflict=0
%%%mzn-stat: allDifferentNumber1NumberOfConflicts=0
%%%mzn-stat: allDifferentNumber1MaxHallSetSizeConflict=0
%%%mzn-stat: allDifferentNumber1TotalPruningHallSetSize=635
%%%mzn-stat: allDifferentNumber1NumberOfPruningExplanations=560
%%%mzn-stat: allDifferentNumber1MaxPruningHallSetSize=5
%%%mzn-stat: allDifferentNumber1TotalFixedEdgesAtConflict=0
%%%mzn-stat: allDifferentNumber1TotalVarsInvolvedInPruning=541
%%%mzn-stat: allDifferentNumber1MaxValuesPrunedFromSingleVar=4
%%%mzn-stat: allDifferentNumber1TotalSccSizeAtPruning=143
%%%mzn-stat: allDifferentNumber1NumberOfSccPruningCalls=86
%%%mzn-stat: circuitNumber2PropagationsThatFoundConflict=2
%%%mzn-stat: circuitNumber2TotalFixedEdgesAtConflict=33
%%%mzn-stat: circuitNumber2NumberOfConflicts=2
%%%mzn-stat: circuitNumber2PropagationsThatPruned=2
%%%mzn-stat: circuitNumber2PropagationsTotal=87
%%%mzn-stat: AverageConflictSize=11
%%%mzn-stat: NumUnitNogoodsLearned=0
%%%mzn-stat: AverageLearnedNogoodLength=19
%%%mzn-stat: AverageBacktrackAmount=0
%%%mzn-stat: AverageLbd=13.5
%%%mzn-stat: 2AutonomousSearchNumBackupCalled=1160
%%%mzn-stat: 2AutonomousSearchNumPredicatesRemoved=0
%%%mzn-stat: 2AutonomousSearchNumCalls=1165
%%%mzn-stat: 2AutonomousSearchNumPredicatesAdded=84
%%%mzn-stat: 2AutonomousSearchAverageSizeOfHeap=0.1742489270386266
%%%mzn-stat: 2AutonomousSearchNumAssignedPredicatesEncountered=203
%%%mzn-stat-end
maxleg = 641;
succ = array1d(1..20,[2, 3, 4, 8, 12, 7, 1, 13, 6, 9, 10, 14, 16, 20, 5, 19, 11, 17, 15, 18]);
% time elapsed: 2.75 s
----------
%%%mzn-stat: initTime=0.005142502
%%%mzn-stat: objective=614
%%%mzn-stat: nodes=1475
%%%mzn-stat: restarts=0
%%%mzn-stat: peakDepth=260
%%%mzn-stat: solveTime=0.004784278
%%%mzn-stat: variables=521
%%%mzn-stat: propagators=366
%%%mzn-stat: failures=3
%%%mzn-stat: propagations=4298
%%%mzn-stat: nogoods=3
%%%mzn-stat: numAtomicConstraintsPropagated=0
%%%mzn-stat: allDifferentNumber1PropagationsTotal=207
%%%mzn-stat: allDifferentNumber1PropagationsThatFoundConflict=0
%%%mzn-stat: allDifferentNumber1PropagationsThatPruned=104
%%%mzn-stat: allDifferentNumber1TotalValuesPruned=665
%%%mzn-stat: allDifferentNumber1TotalHallSetSizeConflict=0
%%%mzn-stat: allDifferentNumber1NumberOfConflicts=0
%%%mzn-stat: allDifferentNumber1MaxHallSetSizeConflict=0
%%%mzn-stat: allDifferentNumber1TotalPruningHallSetSize=754
%%%mzn-stat: allDifferentNumber1NumberOfPruningExplanations=665
%%%mzn-stat: allDifferentNumber1MaxPruningHallSetSize=5
%%%mzn-stat: allDifferentNumber1TotalFixedEdgesAtConflict=0
%%%mzn-stat: allDifferentNumber1TotalVarsInvolvedInPruning=645
%%%mzn-stat: allDifferentNumber1MaxValuesPrunedFromSingleVar=4
%%%mzn-stat: allDifferentNumber1TotalSccSizeAtPruning=177
%%%mzn-stat: allDifferentNumber1NumberOfSccPruningCalls=104
%%%mzn-stat: circuitNumber2PropagationsThatFoundConflict=3
%%%mzn-stat: circuitNumber2TotalFixedEdgesAtConflict=49
%%%mzn-stat: circuitNumber2NumberOfConflicts=3
%%%mzn-stat: circuitNumber2PropagationsThatPruned=3
%%%mzn-stat: circuitNumber2PropagationsTotal=105
%%%mzn-stat: AverageConflictSize=8.666666666666666
%%%mzn-stat: NumUnitNogoodsLearned=0
%%%mzn-stat: AverageLearnedNogoodLength=21
%%%mzn-stat: AverageBacktrackAmount=0
%%%mzn-stat: AverageLbd=13
%%%mzn-stat: 2AutonomousSearchNumBackupCalled=1373
%%%mzn-stat: 2AutonomousSearchNumPredicatesRemoved=0
%%%mzn-stat: 2AutonomousSearchNumCalls=1379
%%%mzn-stat: 2AutonomousSearchNumPredicatesAdded=139
%%%mzn-stat: 2AutonomousSearchAverageSizeOfHeap=0.20667150108774474
%%%mzn-stat: 2AutonomousSearchNumAssignedPredicatesEncountered=285
%%%mzn-stat-end
maxleg = 614;
succ = array1d(1..20,[2, 3, 4, 8, 14, 7, 1, 12, 6, 9, 10, 13, 16, 20, 5, 19, 11, 17, 15, 18]);
% time elapsed: 2.75 s
----------
%%%mzn-stat: initTime=0.005142502
%%%mzn-stat: objective=586
%%%mzn-stat: nodes=1683
%%%mzn-stat: restarts=0
%%%mzn-stat: peakDepth=260
%%%mzn-stat: solveTime=0.005487899
%%%mzn-stat: variables=521
%%%mzn-stat: propagators=366
%%%mzn-stat: failures=3
%%%mzn-stat: propagations=4926
%%%mzn-stat: nogoods=3
%%%mzn-stat: numAtomicConstraintsPropagated=0
%%%mzn-stat: allDifferentNumber1PropagationsTotal=240
%%%mzn-stat: allDifferentNumber1PropagationsThatFoundConflict=0
%%%mzn-stat: allDifferentNumber1PropagationsThatPruned=120
%%%mzn-stat: allDifferentNumber1TotalValuesPruned=763
%%%mzn-stat: allDifferentNumber1TotalHallSetSizeConflict=0
%%%mzn-stat: allDifferentNumber1NumberOfConflicts=0
%%%mzn-stat: allDifferentNumber1MaxHallSetSizeConflict=0
%%%mzn-stat: allDifferentNumber1TotalPruningHallSetSize=907
%%%mzn-stat: allDifferentNumber1NumberOfPruningExplanations=763
%%%mzn-stat: allDifferentNumber1MaxPruningHallSetSize=14
%%%mzn-stat: allDifferentNumber1TotalFixedEdgesAtConflict=0
%%%mzn-stat: allDifferentNumber1TotalVarsInvolvedInPruning=733
%%%mzn-stat: allDifferentNumber1MaxValuesPrunedFromSingleVar=4
%%%mzn-stat: allDifferentNumber1TotalSccSizeAtPruning=228
%%%mzn-stat: allDifferentNumber1NumberOfSccPruningCalls=120
%%%mzn-stat: circuitNumber2PropagationsThatFoundConflict=3
%%%mzn-stat: circuitNumber2TotalFixedEdgesAtConflict=49
%%%mzn-stat: circuitNumber2NumberOfConflicts=3
%%%mzn-stat: circuitNumber2PropagationsThatPruned=3
%%%mzn-stat: circuitNumber2PropagationsTotal=121
%%%mzn-stat: AverageConflictSize=8.666666666666666
%%%mzn-stat: NumUnitNogoodsLearned=0
%%%mzn-stat: AverageLearnedNogoodLength=21
%%%mzn-stat: AverageBacktrackAmount=0
%%%mzn-stat: AverageLbd=13
%%%mzn-stat: 2AutonomousSearchNumBackupCalled=1565
%%%mzn-stat: 2AutonomousSearchNumPredicatesRemoved=0
%%%mzn-stat: 2AutonomousSearchNumCalls=1572
%%%mzn-stat: 2AutonomousSearchNumPredicatesAdded=139
%%%mzn-stat: 2AutonomousSearchAverageSizeOfHeap=0.23346055979643765
%%%mzn-stat: 2AutonomousSearchNumAssignedPredicatesEncountered=367
%%%mzn-stat-end
maxleg = 586;
succ = array1d(1..20,[2, 3, 4, 8, 15, 7, 1, 12, 6, 9, 10, 13, 14, 16, 17, 19, 18, 20, 5, 11]);
% time elapsed: 2.77 s
----------
%%%mzn-stat: initTime=0.005142502
%%%mzn-stat: objective=583
%%%mzn-stat: nodes=1881
%%%mzn-stat: restarts=0
%%%mzn-stat: peakDepth=260
%%%mzn-stat: solveTime=0.006308491
%%%mzn-stat: variables=521
%%%mzn-stat: propagators=366
%%%mzn-stat: failures=3
%%%mzn-stat: propagations=5579
%%%mzn-stat: nogoods=3
%%%mzn-stat: numAtomicConstraintsPropagated=0
%%%mzn-stat: allDifferentNumber1PropagationsTotal=274
%%%mzn-stat: allDifferentNumber1PropagationsThatFoundConflict=0
%%%mzn-stat: allDifferentNumber1PropagationsThatPruned=137
%%%mzn-stat: allDifferentNumber1TotalValuesPruned=855
%%%mzn-stat: allDifferentNumber1TotalHallSetSizeConflict=0
%%%mzn-stat: allDifferentNumber1NumberOfConflicts=0
%%%mzn-stat: allDifferentNumber1MaxHallSetSizeConflict=0
%%%mzn-stat: allDifferentNumber1TotalPruningHallSetSize=1048
%%%mzn-stat: allDifferentNumber1NumberOfPruningExplanations=855
%%%mzn-stat: allDifferentNumber1MaxPruningHallSetSize=14
%%%mzn-stat: allDifferentNumber1TotalFixedEdgesAtConflict=0
%%%mzn-stat: allDifferentNumber1TotalVarsInvolvedInPruning=821
%%%mzn-stat: allDifferentNumber1MaxValuesPrunedFromSingleVar=4
%%%mzn-stat: allDifferentNumber1TotalSccSizeAtPruning=279
%%%mzn-stat: allDifferentNumber1NumberOfSccPruningCalls=137
%%%mzn-stat: circuitNumber2PropagationsThatFoundConflict=3
%%%mzn-stat: circuitNumber2TotalFixedEdgesAtConflict=49
%%%mzn-stat: circuitNumber2NumberOfConflicts=3
%%%mzn-stat: circuitNumber2PropagationsThatPruned=4
%%%mzn-stat: circuitNumber2PropagationsTotal=138
%%%mzn-stat: AverageConflictSize=8.666666666666666
%%%mzn-stat: NumUnitNogoodsLearned=0
%%%mzn-stat: AverageLearnedNogoodLength=21
%%%mzn-stat: AverageBacktrackAmount=0
%%%mzn-stat: AverageLbd=13
%%%mzn-stat: 2AutonomousSearchNumBackupCalled=1747
%%%mzn-stat: 2AutonomousSearchNumPredicatesRemoved=0
%%%mzn-stat: 2AutonomousSearchNumCalls=1755
%%%mzn-stat: 2AutonomousSearchNumPredicatesAdded=139
%%%mzn-stat: 2AutonomousSearchAverageSizeOfHeap=0.25584045584045584
%%%mzn-stat: 2AutonomousSearchNumAssignedPredicatesEncountered=449
%%%mzn-stat-end
maxleg = 583;
succ = array1d(1..20,[2, 3, 4, 8, 15, 7, 1, 12, 10, 6, 9, 13, 14, 16, 17, 19, 18, 20, 5, 11]);
% time elapsed: 2.77 s
----------
==========
% time elapsed: 4.06 s
%%%mzn-stat: initTime=0.005142502
%%%mzn-stat: objective=583
%%%mzn-stat: nodes=7944
%%%mzn-stat: restarts=0
%%%mzn-stat: peakDepth=260
%%%mzn-stat: solveTime=1.310939883
%%%mzn-stat: variables=521
%%%mzn-stat: propagators=366
%%%mzn-stat: failures=6066
%%%mzn-stat: propagations=265453
%%%mzn-stat: nogoods=6066
%%%mzn-stat: numAtomicConstraintsPropagated=0
%%%mzn-stat: allDifferentNumber1PropagationsTotal=19371
%%%mzn-stat: allDifferentNumber1PropagationsThatFoundConflict=341
%%%mzn-stat: allDifferentNumber1PropagationsThatPruned=12628
%%%mzn-stat: allDifferentNumber1TotalValuesPruned=93627
%%%mzn-stat: allDifferentNumber1TotalHallSetSizeConflict=2898
%%%mzn-stat: allDifferentNumber1NumberOfConflicts=341
%%%mzn-stat: allDifferentNumber1MaxHallSetSizeConflict=16
%%%mzn-stat: allDifferentNumber1TotalPruningHallSetSize=283286
%%%mzn-stat: allDifferentNumber1NumberOfPruningExplanations=93627
%%%mzn-stat: allDifferentNumber1MaxPruningHallSetSize=15
%%%mzn-stat: allDifferentNumber1TotalFixedEdgesAtConflict=2381
%%%mzn-stat: allDifferentNumber1TotalVarsInvolvedInPruning=78000
%%%mzn-stat: allDifferentNumber1MaxValuesPrunedFromSingleVar=11
%%%mzn-stat: allDifferentNumber1TotalSccSizeAtPruning=156969
%%%mzn-stat: allDifferentNumber1NumberOfSccPruningCalls=12628
%%%mzn-stat: circuitNumber2PropagationsThatFoundConflict=724
%%%mzn-stat: circuitNumber2TotalFixedEdgesAtConflict=5335
%%%mzn-stat: circuitNumber2NumberOfConflicts=724
%%%mzn-stat: circuitNumber2PropagationsThatPruned=1949
%%%mzn-stat: circuitNumber2PropagationsTotal=7524
%%%mzn-stat: AverageConflictSize=15.2215628090999
%%%mzn-stat: NumUnitNogoodsLearned=1
%%%mzn-stat: AverageLearnedNogoodLength=49.8913616880976
%%%mzn-stat: AverageBacktrackAmount=0
%%%mzn-stat: AverageLbd=4.728321793603692
%%%mzn-stat: 2AutonomousSearchNumBackupCalled=1747
%%%mzn-stat: 2AutonomousSearchNumPredicatesRemoved=0
%%%mzn-stat: 2AutonomousSearchNumCalls=1755
%%%mzn-stat: 2AutonomousSearchNumPredicatesAdded=928
%%%mzn-stat: 2AutonomousSearchAverageSizeOfHeap=0.25584045584045584
%%%mzn-stat: 2AutonomousSearchNumAssignedPredicatesEncountered=449
%%%mzn-stat-end
